
Log started (V11.0.0) Tue May 13 17:38:16 2008

Tried aggregator 1 time.
Reduced MIP has 110 rows, 1001 columns, and 2010 nonzeros.
Presolve time =    0.00 sec.
Clique table members: 100.
MIP emphasis: balance optimality and feasibility.
MIP search method: dynamic search.
Parallel mode: none, using 1 thread.
Root relaxation solution time =    0.02 sec.

        Nodes                                         Cuts/
   Node  Left     Objective  IInf  Best Integer     Best Node    ItCnt     Gap

*     0+    0                         6448.0000      406.0107      165   93.70%
*     0+    0                          450.0000      406.0107      165    9.78%
      0     0      407.2291    19      450.0000      Fract: 6      186    9.50%
*     0+    0                          449.0000      407.2291      186    9.30%
      0     0      412.0553    24      449.0000    MIRcuts: 8      266    8.23%
*     0+    0                          441.0000      412.0553      266    6.56%
      0     0      412.6174    34      441.0000       Cuts: 6      308    6.44%
      0     0      413.6828    32      441.0000    MIRcuts: 5      348    6.19%
      0     0      413.7544    28      441.0000       Cuts: 4      370    6.18%
*     0+    0                          438.0000      413.7544      370    5.54%
      0     0      413.7653    30      438.0000    MIRcuts: 3      388    5.53%
*     0+    0                          436.0000      413.7653      388    5.10%
      0     0      416.7502    23      436.0000       Cuts: 4      430    4.42%
*     0+    0                          435.0000      416.7502      430    4.20%
      0     0      416.7785    25      435.0000    MIRcuts: 1      445    4.19%
*     0+    0                          431.0000      416.7785      445    3.30%
*     0+    0                          430.0000      416.7785      445    3.07%
      0     2      417.0000    24      430.0000      416.7785      445    3.07%
*    20+   20                          427.0000      417.0000      547    2.34%
    100    88      418.0000    16      427.0000      417.0000     2912    2.34%
    200   179      420.0000     8      427.0000      417.0000     5316    2.34%
    300   261      424.0313     9      427.0000      417.0000     7921    2.34%
    400   345      419.0000     5      427.0000      417.0000     9041    2.34%
    500   420      425.0000    16      427.0000      425.0000    11157    0.47%
    600   405      425.0000    14      427.0000      425.0000    12695    0.47%
    700   364      426.0000    16      427.0000      425.0000    13702    0.47%
    800   370    infeasible            427.0000      425.0000    15456    0.47%
*   867     0      integral     0      425.0000      425.0000    16862    0.00%

Cover cuts applied:  26
Mixed integer rounding cuts applied:  17
Zero-half cuts applied:  1
Gomory fractional cuts applied:  3

Solution pool: 11 solutions saved.

MIP - Integer optimal solution:  Objective = 4.2500000000e+002
Solution time =    3.53 sec.  Iterations = 16862  Nodes = 868


Incumbent solution
Variable Name           Solution Value
Cmax                        425.000000
X_1_7                         1.000000
X_2_9                         1.000000
X_3_5                         1.000000
X_4_7                         1.000000
X_5_7                         1.000000
X_6_9                         1.000000
X_7_5                         1.000000
X_8_8                         1.000000
X_9_5                         1.000000
X_10_3                        1.000000
X_11_1                        1.000000
X_12_7                        1.000000
X_13_5                        1.000000
X_14_3                        1.000000
X_15_7                        1.000000
X_16_8                        1.000000
X_17_7                        1.000000
X_18_4                        1.000000
X_19_5                        1.000000
X_20_7                        1.000000
X_21_7                        1.000000
X_22_7                        1.000000
X_23_6                        1.000000
X_24_4                        1.000000
X_25_1                        1.000000
X_26_2                        1.000000
X_27_1                        1.000000
X_28_3                        1.000000
X_29_10                       1.000000
X_30_8                        1.000000
X_31_4                        1.000000
X_32_10                       1.000000
X_33_6                        1.000000
X_34_7                        1.000000
X_35_7                        1.000000
X_36_3                        1.000000
X_37_7                        1.000000
X_38_5                        1.000000
X_39_7                        1.000000
X_40_9                        1.000000
X_41_7                        1.000000
X_42_1                        1.000000
X_43_5                        1.000000
X_44_1                        1.000000
X_45_1                        1.000000
X_46_1                        1.000000
X_47_7                        1.000000
X_48_8                        1.000000
X_49_7                        1.000000
X_50_6                        1.000000
X_51_1                        1.000000
X_52_8                        1.000000
X_53_10                       1.000000
X_54_5                        1.000000
X_55_7                        1.000000
X_56_10                       1.000000
X_57_9                        1.000000
X_58_2                        1.000000
X_59_7                        1.000000
X_60_1                        1.000000
X_61_7                        1.000000
X_62_7                        1.000000
X_63_7                        1.000000
X_64_8                        1.000000
X_65_10                       1.000000
X_66_7                        1.000000
X_67_5                        1.000000
X_68_7                        1.000000
X_69_8                        1.000000
X_70_7                        1.000000
X_71_1                        1.000000
X_72_6                        1.000000
X_73_4                        1.000000
X_74_5                        1.000000
X_75_2                        1.000000
X_76_10                       1.000000
X_77_1                        1.000000
X_78_7                        1.000000
X_79_6                        1.000000
X_80_8                        1.000000
X_81_7                        1.000000
X_82_1                        1.000000
X_83_5                        1.000000
X_84_5                        1.000000
X_85_6                        1.000000
X_86_7                        1.000000
X_87_7                        1.000000
X_88_7                        1.000000
X_89_7                        1.000000
X_90_9                        1.000000
X_91_5                        1.000000
X_92_7                        1.000000
X_93_7                        1.000000
X_94_10                       1.000000
X_95_5                        1.000000
X_96_7                        1.000000
X_97_7                        1.000000
X_98_7                        1.000000
X_99_7                        1.000000
X_100_2                       1.000000
All other variables in the range 1-1001 are 0.
